64256258117262353975013,1,1,2,06,6,1,2,014,11,1,2,011,10,1,2,08,2,1,2,04,5,1,2,04,3,1,2,010,5,1,2,010,3,1,2,02,9,1,2,010,11,1,2,04,2,1,2,04,13,1,2,08,9,1,2,02,10,1,2,09,2,1,2,08,2,1,2,06,14,1,2,014,2,1,2,06,2,1,2,01,5,1,2,014,6,1,2,05,7,1,2,05,6,1,2,010,8,1,2,01,8,1,2,03,5,1,2,05,2,1,2,05,11,1,2,08,8,1,2,09,15,1,2,010,12,1,2,05,2,1,2,013,15,1,2,013,7,1,2,015,6,1,2,08,9,1,2,012,10,1,2,014,9,1,2,012,14,1,2,014,5,1,2,03,9,1,2,012,11,1,2,013,12,1,2,015,11,1,2,08,8,1,2,03,7,1,2,013,11,1,2,04,4,1,2,02,6,1,2,0